min: 1.0Emax;
1.0Emax >= 1.0E_0;
1.0Emax >= 1.0E_1;
1.0E_0 >= 1.0E_0_chef;
1.0E_1 >= 1.0E_1_kettle;
1.0E_0_chef >= 10.0X_0_chef;
1.0E_1_kettle >= 120.0X_1_kettle;
1.0E_1_kettle >= 1.0E_0_chef + 120.0X_1_kettle;
1.0dummy_1 + 1.0X_0_chef = 1.0;
1.0dummy_2 + 1.0X_1_kettle = 1.0;
1.0dummy_1 + 1.0dummy_2 = 0.0;
bin X_0_chef,X_1_kettle;
bin Y_0_chef_0,Y_1_kettle_1;